NAME : a280
COMMENT : Tour length 3427
TYPE : TOUR
DIMENSION : 280
TOUR_SECTION
1
280
2
3
279
278
260
259
258
254
253
208
209
252
255
256
257
262
261
263
265
266
138
137
267
268
136
135
134
270
269
264
140
139
148
141
142
143
144
145
146
147
149
150
151
152
156
153
155
154
129
128
127
126
125
30
31
32
29
28
27
26
22
25
23
24
14
13
12
11
10
8
7
9
275
276
277
4
5
6
274
273
272
271
16
17
18
133
132
19
20
21
130
131
124
123
122
121
120
119
157
158
159
160
175
161
162
163
164
165
166
167
168
169
101
100
99
98
93
94
95
96
97
92
91
90
89
109
108
104
105
110
111
112
88
83
82
81
80
79
76
75
74
73
72
71
70
67
66
65
64
63
62
118
117
115
114
113
87
84
85
86
116
61
60
43
42
45
44
59
58
57
56
55
54
53
52
51
50
49
48
47
46
41
40
39
38
37
36
35
34
33
68
69
77
78
103
102
170
171
172
173
106
107
174
182
181
176
177
178
179
180
183
184
185
187
186
190
189
188
191
192
194
195
196
197
198
201
200
199
202
203
204
205
206
207
210
211
212
213
214
215
216
217
218
219
220
221
222
223
224
225
226
227
228
229
230
251
250
247
244
241
240
239
238
231
246
245
243
242
248
249
232
233
234
235
236
237
15
193
1
-1
EOF